59 59
18 7
29 6
16 45
4 59
23 15
3 32
14 47
8 19
12 38
11 33
13 39
9 20
23 48
22 8
7 1
29 2
28 53
8 21
20 9
1 35
24 46
2 25
27 17
25 37
18 43
11 34
6 24
4 28
15 14
19 42
12 36
9 57
3 16
6 22
21 55
19 50
1 54
22 13
17 10
20 26
16 4
26 52
17 56
28 11
25 51
21 58
5 44
5 3
2 31
14 41
15 29
10 49
1 27
10 18
7 30
27 40
24 12
13 23
26 5
